letting n =  10
letting blocks =  [[1, 2], [1, 6], [1, 9], [1, 10], [2, 4], [2, 6], [2, 7], [2, 9], [3, 2], [3, 6], [3, 7], [3, 8], [4, 4], [4, 5], [4, 8], [4, 9], [5, 2], [5, 5], [5, 6], [5, 8], [5, 10], [6, 3], [6, 4], [6, 5], [6, 7], [6, 10], [7, 5], [7, 6], [7, 8], [7, 10], [8, 3], [8, 4], [8, 5], [8, 7], [8, 9], [9, 6], [9, 7], [9, 8], [9, 10], [10, 1], [10, 4], [10, 5], [10, 7], [10, 9]]
